NAME: concorde91
TYPE: TSP
DIMENSION: 25 
EDGE_WEIGHT_TYPE: EUC_2D
NODE_COORD_SECTION
1 60 4
2 96 6
3 27 28
4 66 30
5 7 96
6 7 39
7 37 37
8 30 85
9 55 85
10 37 32
11 85 13
12 62 62
13 40 79
14 30 34
15 38 91
16 70 19
17 95 80
18 78 76
19 22 92
20 72 32
21 67 8
22 71 92
23 28 96
24 71 67
25 66 75
